data;
param Title := AngiopterisEvecta;
param start := 1_0_R;
set V :=
19_0_R
20_0_R
93_0_F
1_0_R
0_0_F
21_0_R
22_0_R
64_0_F
65_0_F
67_0_R
95_0_F
68_0_R
6_0_R
5_0_F
63_0_F
73_0_F
86_0_F
43_0_F
41_0_R
59_0_F
25_0_R
23_0_R
101_0_F
55_0_R
56_0_R
103_0_F
16_0_R
18_0_F
110_0_F
72_0_R
70_0_F
77_0_R
82_0_F
83_0_R
52_0_R
51_0_F
37_0_F
38_0_F
39_0_F
37_1_R
51_1_R
52_1_F
53_0_R
51_2_F
37_2_F
38_1_F
50_0_R
74_0_R
70_1_R
72_1_F
110_1_R
18_1_R
16_1_F
103_1_R
56_1_F
55_1_F
101_1_R
23_1_F
25_1_F
59_1_R
41_1_F
43_1_R
86_1_R
73_1_R
63_1_R
5_1_R
6_1_F
68_1_F
95_1_R
67_1_F
65_1_R
64_1_R
;
set O :=
19_0_R	20_0_R
20_0_R	93_0_F
93_0_F	1_0_R
1_0_R	0_0_F
0_0_F	21_0_R
21_0_R	22_0_R
22_0_R	64_0_F
64_0_F	65_0_F
65_0_F	67_0_R
67_0_R	95_0_F
95_0_F	68_0_R
68_0_R	6_0_R
6_0_R	5_0_F
5_0_F	63_0_F
63_0_F	73_0_F
73_0_F	86_0_F
86_0_F	43_0_F
43_0_F	41_0_R
41_0_R	59_0_F
59_0_F	25_0_R
25_0_R	23_0_R
23_0_R	101_0_F
101_0_F	55_0_R
55_0_R	56_0_R
56_0_R	103_0_F
103_0_F	16_0_R
16_0_R	18_0_F
18_0_F	110_0_F
110_0_F	72_0_R
72_0_R	70_0_F
70_0_F	77_0_R
77_0_R	82_0_F
82_0_F	83_0_R
83_0_R	52_0_R
52_0_R	51_0_F
51_0_F	37_0_F
37_0_F	38_0_F
38_0_F	39_0_F
39_0_F	37_1_R
37_1_R	51_1_R
51_1_R	52_1_F
52_1_F	53_0_R
53_0_R	51_2_F
51_2_F	37_2_F
37_2_F	38_1_F
38_1_F	50_0_R
50_0_R	74_0_R
74_0_R	70_1_R
70_1_R	72_1_F
72_1_F	110_1_R
110_1_R	18_1_R
18_1_R	16_1_F
16_1_F	103_1_R
103_1_R	56_1_F
56_1_F	55_1_F
55_1_F	101_1_R
101_1_R	23_1_F
23_1_F	25_1_F
25_1_F	59_1_R
59_1_R	41_1_F
41_1_F	43_1_R
43_1_R	86_1_R
86_1_R	73_1_R
73_1_R	63_1_R
63_1_R	5_1_R
5_1_R	6_1_F
6_1_F	68_1_F
68_1_F	95_1_R
95_1_R	67_1_F
67_1_F	65_1_R
65_1_R	64_1_R
64_1_R	19_0_R
;
set L :=
110_0_F	82_0_F
86_1_R	6_1_F
59_0_F	16_0_R
55_0_R	77_0_R
74_0_R	16_1_F
74_0_R	55_1_F
83_0_R	50_0_R
83_0_R	52_1_F
83_0_R	52_0_R
83_0_R	38_1_F
83_0_R	38_0_F
0_0_F	22_0_R
0_0_F	21_0_R
68_0_R	73_0_F
25_0_R	110_0_F
25_0_R	18_0_F
82_0_F	83_0_R
68_1_F	19_0_R
73_1_R	68_1_F
73_1_R	95_1_R
110_1_R	25_1_F
21_0_R	22_0_R
93_0_F	1_0_R
38_0_F	74_0_R
38_0_F	70_1_R
43_0_F	55_0_R
19_0_R	20_0_R
95_0_F	73_0_F
95_0_F	63_0_F
59_1_R	63_1_R
59_1_R	73_1_R
20_0_R	1_0_R
20_0_R	93_0_F
65_0_F	6_0_R
63_1_R	67_1_F
63_1_R	95_1_R
70_0_F	82_0_F
55_1_F	43_1_R
67_1_F	19_0_R
95_1_R	19_0_R
73_0_F	25_0_R
73_0_F	59_0_F
52_1_F	74_0_R
16_0_R	77_0_R
67_0_R	63_0_F
64_0_F	6_0_R
23_0_R	70_0_F
22_0_R	95_0_F
22_0_R	67_0_R
22_0_R	65_0_F
22_0_R	68_0_R
22_0_R	64_0_F
16_1_F	59_1_R
1_0_R	0_0_F
1_0_R	21_0_R
6_0_R	86_0_F
25_1_F	86_1_R
25_1_F	73_1_R
70_1_R	23_1_F
43_1_R	63_1_R
77_0_R	82_0_F
77_0_R	83_0_R
63_0_F	43_0_F
63_0_F	59_0_F
18_1_R	25_1_F
50_0_R	110_1_R
50_0_R	18_1_R
50_0_R	16_1_F
38_1_F	74_0_R
38_1_F	70_1_R
64_1_R	20_0_R
6_1_F	64_1_R
6_1_F	65_1_R
18_0_F	77_0_R
18_0_F	82_0_F
23_1_F	86_1_R
65_1_R	20_0_R
52_0_R	50_0_R
86_0_F	25_0_R
86_0_F	23_0_R
;
param l :=
19_0_R	20_0_R	-110.0
20_0_R	93_0_F	-110.0
93_0_F	1_0_R	-110.0
1_0_R	0_0_F	-110.0
0_0_F	21_0_R	-110.0
21_0_R	22_0_R	-110.0
22_0_R	64_0_F	-110.0
64_0_F	65_0_F	-110.0
65_0_F	67_0_R	-110.0
67_0_R	95_0_F	-110.0
95_0_F	68_0_R	-110.0
68_0_R	6_0_R	-110.0
6_0_R	5_0_F	-110.0
5_0_F	63_0_F	-110.0
63_0_F	73_0_F	-110.0
73_0_F	86_0_F	-110.0
86_0_F	43_0_F	-110.0
43_0_F	41_0_R	-110.0
41_0_R	59_0_F	-110.0
59_0_F	25_0_R	-110.0
25_0_R	23_0_R	-110.0
23_0_R	101_0_F	-110.0
101_0_F	55_0_R	-110.0
55_0_R	56_0_R	-110.0
56_0_R	103_0_F	-110.0
103_0_F	16_0_R	-110.0
16_0_R	18_0_F	-110.0
18_0_F	110_0_F	-110.0
110_0_F	72_0_R	-110.0
72_0_R	70_0_F	-110.0
70_0_F	77_0_R	-110.0
77_0_R	82_0_F	-110.0
82_0_F	83_0_R	-110.0
83_0_R	52_0_R	-110.0
52_0_R	51_0_F	-110.0
51_0_F	37_0_F	-110.0
37_0_F	38_0_F	-110.0
38_0_F	39_0_F	-110.0
39_0_F	37_1_R	-110.0
37_1_R	51_1_R	-110.0
51_1_R	52_1_F	-110.0
52_1_F	53_0_R	-110.0
53_0_R	51_2_F	-110.0
51_2_F	37_2_F	-110.0
37_2_F	38_1_F	-110.0
38_1_F	50_0_R	-110.0
50_0_R	74_0_R	-110.0
74_0_R	70_1_R	-110.0
70_1_R	72_1_F	-110.0
72_1_F	110_1_R	-110.0
110_1_R	18_1_R	-110.0
18_1_R	16_1_F	-110.0
16_1_F	103_1_R	-110.0
103_1_R	56_1_F	-110.0
56_1_F	55_1_F	-110.0
55_1_F	101_1_R	-110.0
101_1_R	23_1_F	-110.0
23_1_F	25_1_F	-110.0
25_1_F	59_1_R	-110.0
59_1_R	41_1_F	-110.0
41_1_F	43_1_R	-110.0
43_1_R	86_1_R	-110.0
86_1_R	73_1_R	-110.0
73_1_R	63_1_R	-110.0
63_1_R	5_1_R	-110.0
5_1_R	6_1_F	-110.0
6_1_F	68_1_F	-110.0
68_1_F	95_1_R	-110.0
95_1_R	67_1_F	-110.0
67_1_F	65_1_R	-110.0
65_1_R	64_1_R	-110.0
64_1_R	19_0_R	-110.0
;
param w :=
19_0_R	2968.0
20_0_R	20870.0
93_0_F	3682.0
1_0_R	41258.0
0_0_F	3494.0
21_0_R	2721.0
22_0_R	15596.0
64_0_F	1120.0
65_0_F	863.0
67_0_R	1139.0
95_0_F	1421.0
68_0_R	675.0
6_0_R	2184.0
5_0_F	346.0
63_0_F	1732.0
73_0_F	1145.0
86_0_F	1931.0
43_0_F	918.0
41_0_R	432.0
59_0_F	1286.0
25_0_R	1779.0
23_0_R	990.0
101_0_F	142.0
55_0_R	727.0
56_0_R	260.0
103_0_F	508.0
16_0_R	1211.0
18_0_F	1363.0
110_0_F	497.0
72_0_R	354.0
70_0_F	560.0
77_0_R	2774.0
82_0_F	2813.0
83_0_R	10250.0
52_0_R	466.0
51_0_F	226.0
37_0_F	236.0
38_0_F	569.0
39_0_F	214.0
37_1_R	236.0
51_1_R	226.0
52_1_F	466.0
53_0_R	217.0
51_2_F	226.0
37_2_F	236.0
38_1_F	569.0
50_0_R	2614.0
74_0_R	1728.0
70_1_R	560.0
72_1_F	354.0
110_1_R	497.0
18_1_R	1363.0
16_1_F	1211.0
103_1_R	508.0
56_1_F	260.0
55_1_F	727.0
101_1_R	142.0
23_1_F	990.0
25_1_F	1779.0
59_1_R	1286.0
41_1_F	432.0
43_1_R	918.0
86_1_R	1931.0
73_1_R	1145.0
63_1_R	1732.0
5_1_R	346.0
6_1_F	2184.0
68_1_F	675.0
95_1_R	1421.0
67_1_F	1139.0
65_1_R	863.0
64_1_R	1120.0
;
param b_inf :=
110_0_F	82_0_F	3131.0
86_1_R	6_1_F	2611.0
59_0_F	16_0_R	3524.0
55_0_R	77_0_R	3816.0
74_0_R	16_1_F	2188.0
74_0_R	55_1_F	3746.0
83_0_R	50_0_R	2319.0
83_0_R	52_1_F	1239.0
83_0_R	52_0_R	0.0
83_0_R	38_1_F	420.0
83_0_R	38_0_F	420.0
0_0_F	22_0_R	2380.0
0_0_F	21_0_R	0.0
68_0_R	73_0_F	3692.0
25_0_R	110_0_F	4201.0
25_0_R	18_0_F	2951.0
82_0_F	83_0_R	0.0
68_1_F	19_0_R	3913.0
73_1_R	68_1_F	3692.0
73_1_R	95_1_R	4252.0
110_1_R	25_1_F	4201.0
21_0_R	22_0_R	0.0
93_0_F	1_0_R	0.0
38_0_F	74_0_R	3829.0
38_0_F	70_1_R	4036.0
43_0_F	55_0_R	3883.0
19_0_R	20_0_R	0.0
95_0_F	73_0_F	4320.0
95_0_F	63_0_F	2617.0
59_1_R	63_1_R	3746.0
59_1_R	73_1_R	2759.0
20_0_R	1_0_R	3344.0
20_0_R	93_0_F	0.0
65_0_F	6_0_R	2726.0
63_1_R	67_1_F	3993.0
63_1_R	95_1_R	2617.0
70_0_F	82_0_F	2437.0
55_1_F	43_1_R	3898.0
67_1_F	19_0_R	1525.0
95_1_R	19_0_R	2528.0
73_0_F	25_0_R	3895.0
73_0_F	59_0_F	2759.0
52_1_F	74_0_R	3131.0
16_0_R	77_0_R	2091.0
67_0_R	63_0_F	4001.0
64_0_F	6_0_R	3438.0
23_0_R	70_0_F	3976.0
22_0_R	95_0_F	2576.0
22_0_R	67_0_R	1529.0
22_0_R	65_0_F	804.0
22_0_R	68_0_R	3869.0
22_0_R	64_0_F	0.0
16_1_F	59_1_R	3516.0
1_0_R	0_0_F	0.0
1_0_R	21_0_R	3145.0
6_0_R	86_0_F	2651.0
25_1_F	86_1_R	2111.0
25_1_F	73_1_R	3895.0
70_1_R	23_1_F	3976.0
43_1_R	63_1_R	2700.0
77_0_R	82_0_F	0.0
77_0_R	83_0_R	2465.0
63_0_F	43_0_F	2700.0
63_0_F	59_0_F	3767.0
18_1_R	25_1_F	2951.0
50_0_R	110_1_R	2129.0
50_0_R	18_1_R	2478.0
50_0_R	16_1_F	3750.0
38_1_F	74_0_R	3829.0
38_1_F	70_1_R	4036.0
64_1_R	20_0_R	2655.0
6_1_F	64_1_R	3405.0
6_1_F	65_1_R	2726.0
18_0_F	77_0_R	981.0
18_0_F	82_0_F	3462.0
23_1_F	86_1_R	3744.0
65_1_R	20_0_R	3704.0
52_0_R	50_0_R	2072.0
86_0_F	25_0_R	2099.0
86_0_F	23_0_R	3725.0
;
param b_sup :=
110_0_F	82_0_F	3348.0
86_1_R	6_1_F	2913.0
59_0_F	16_0_R	3765.0
55_0_R	77_0_R	3996.0
74_0_R	16_1_F	2276.0
74_0_R	55_1_F	3965.0
83_0_R	50_0_R	2619.0
83_0_R	52_1_F	1372.0
83_0_R	52_0_R	0.0
83_0_R	38_1_F	2074.0
83_0_R	38_0_F	2074.0
0_0_F	22_0_R	2650.0
0_0_F	21_0_R	32.0
68_0_R	73_0_F	3917.0
25_0_R	110_0_F	4406.0
25_0_R	18_0_F	3179.0
82_0_F	83_0_R	51.0
68_1_F	19_0_R	4082.0
73_1_R	68_1_F	3917.0
73_1_R	95_1_R	4436.0
110_1_R	25_1_F	4406.0
21_0_R	22_0_R	20.0
93_0_F	1_0_R	72.0
38_0_F	74_0_R	3992.0
38_0_F	70_1_R	4156.0
43_0_F	55_0_R	4091.0
19_0_R	20_0_R	12.0
95_0_F	73_0_F	4474.0
95_0_F	63_0_F	2902.0
59_1_R	63_1_R	4023.0
59_1_R	73_1_R	2939.0
20_0_R	1_0_R	3595.0
20_0_R	93_0_F	36.0
65_0_F	6_0_R	2917.0
63_1_R	67_1_F	4209.0
63_1_R	95_1_R	2902.0
70_0_F	82_0_F	2637.0
55_1_F	43_1_R	4128.0
67_1_F	19_0_R	1784.0
95_1_R	19_0_R	3203.0
73_0_F	25_0_R	4123.0
73_0_F	59_0_F	2939.0
52_1_F	74_0_R	3316.0
16_0_R	77_0_R	2327.0
67_0_R	63_0_F	4193.0
64_0_F	6_0_R	3681.0
23_0_R	70_0_F	4164.0
22_0_R	95_0_F	3205.0
22_0_R	67_0_R	1800.0
22_0_R	65_0_F	1215.0
22_0_R	68_0_R	4118.0
22_0_R	64_0_F	14.0
16_1_F	59_1_R	3760.0
1_0_R	0_0_F	51.0
1_0_R	21_0_R	3467.0
6_0_R	86_0_F	2922.0
25_1_F	86_1_R	2383.0
25_1_F	73_1_R	4123.0
70_1_R	23_1_F	4164.0
43_1_R	63_1_R	2830.0
77_0_R	82_0_F	23.0
77_0_R	83_0_R	2732.0
63_0_F	43_0_F	2830.0
63_0_F	59_0_F	3971.0
18_1_R	25_1_F	3179.0
50_0_R	110_1_R	2301.0
50_0_R	18_1_R	2766.0
50_0_R	16_1_F	3927.0
38_1_F	74_0_R	3992.0
38_1_F	70_1_R	4156.0
64_1_R	20_0_R	2928.0
6_1_F	64_1_R	3657.0
6_1_F	65_1_R	2917.0
18_0_F	77_0_R	1088.0
18_0_F	82_0_F	3744.0
23_1_F	86_1_R	3997.0
65_1_R	20_0_R	3987.0
52_0_R	50_0_R	2220.0
86_0_F	25_0_R	2333.0
86_0_F	23_0_R	4001.0
;
